c Reduced graph for p31_1 generated by Cyril Grelier
p edge 30 100
e 1 3
e 1 4
e 1 6
e 1 12
e 1 15
e 1 19
e 1 24
e 1 27
e 2 11
e 2 15
e 2 18
e 2 30
e 3 8
e 4 6
e 4 9
e 4 12
e 4 15
e 4 19
e 4 24
e 4 27
e 5 16
e 5 22
e 5 26
e 6 8
e 6 12
e 6 13
e 6 15
e 6 19
e 6 20
e 6 21
e 6 24
e 6 26
e 6 27
e 6 29
e 7 9
e 7 17
e 7 22
e 7 23
e 7 24
e 7 28
e 7 29
e 7 30
e 8 13
e 8 20
e 8 21
e 8 26
e 8 29
e 9 17
e 9 23
e 9 29
e 9 30
e 10 18
e 10 19
e 10 23
e 10 25
e 11 15
e 11 30
e 12 14
e 12 15
e 12 19
e 12 24
e 12 27
e 13 16
e 13 20
e 13 21
e 13 26
e 13 29
e 14 20
e 14 28
e 15 19
e 15 24
e 15 27
e 15 30
e 17 23
e 17 29
e 17 30
e 18 19
e 18 23
e 18 25
e 19 23
e 19 24
e 19 25
e 19 27
e 20 21
e 20 26
e 20 28
e 20 29
e 21 25
e 21 26
e 21 29
e 22 24
e 22 26
e 22 28
e 23 25
e 23 29
e 23 30
e 24 27
e 24 28
e 26 29
e 29 30
